Maximize

8 y_0 + 5 y_1 + 8 y_2 + 5 y_3 + 9 y_4


Subject To

a0: x_0_0 + x_0_1 + x_0_2 + x_0_3 + x_0_4 <= 1
a1: x_1_0 + x_1_1 + x_1_2 + x_1_3 + x_1_4 <= 10
a2: x_2_0 + x_2_1 + x_2_2 + x_2_3 + x_2_4 <= 3
a3: x_3_0 + x_3_1 + x_3_2 + x_3_3 + x_3_4 <= 4
a4: x_4_0 + x_4_1 + x_4_2 + x_4_3 + x_4_4 <= 10
a5: x_5_0 + x_5_1 + x_5_2 + x_5_3 + x_5_4 <= 4
a6: x_6_0 + x_6_1 + x_6_2 + x_6_3 + x_6_4 <= 1
a7: x_7_0 + x_7_1 + x_7_2 + x_7_3 + x_7_4 <= 30
b0: 0 x_0_0 + 0 x_1_0 + 1 x_2_0 + 1 x_3_0 + 0 x_4_0 + 0 x_5_0 + 0 x_6_0 + 0 x_7_0 - 2 y_0 = 0
b1: 0 x_0_0 + 1 x_1_0 + 0 x_2_0 + 0 x_3_0 + 0 x_4_0 + 0 x_5_0 + 0 x_6_0 + 0 x_7_0 - 0 y_0 = 0
b2: 1 x_0_0 + 0 x_1_0 + 0 x_2_0 + 0 x_3_0 + 0 x_4_0 + 0 x_5_0 + 1 x_6_0 + 0 x_7_0 - 2 y_0 = 0
b3: 0 x_0_0 + 0 x_1_0 + 0 x_2_0 + 0 x_3_0 + 1 x_4_0 + 1 x_5_0 + 0 x_6_0 + 1 x_7_0 - 0 y_0 = 0
b4: 0 x_0_1 + 0 x_1_1 + 1 x_2_1 + 1 x_3_1 + 0 x_4_1 + 0 x_5_1 + 0 x_6_1 + 0 x_7_1 - 8 y_1 = 0
b5: 0 x_0_1 + 1 x_1_1 + 0 x_2_1 + 0 x_3_1 + 0 x_4_1 + 0 x_5_1 + 0 x_6_1 + 0 x_7_1 - 5 y_1 = 0
b6: 1 x_0_1 + 0 x_1_1 + 0 x_2_1 + 0 x_3_1 + 0 x_4_1 + 0 x_5_1 + 1 x_6_1 + 0 x_7_1 - 4 y_1 = 0
b7: 0 x_0_1 + 0 x_1_1 + 0 x_2_1 + 0 x_3_1 + 1 x_4_1 + 1 x_5_1 + 0 x_6_1 + 1 x_7_1 - 2 y_1 = 0
b8: 0 x_0_2 + 0 x_1_2 + 1 x_2_2 + 1 x_3_2 + 0 x_4_2 + 0 x_5_2 + 0 x_6_2 + 0 x_7_2 - 0 y_2 = 0
b9: 0 x_0_2 + 1 x_1_2 + 0 x_2_2 + 0 x_3_2 + 0 x_4_2 + 0 x_5_2 + 0 x_6_2 + 0 x_7_2 - 5 y_2 = 0
b10: 1 x_0_2 + 0 x_1_2 + 0 x_2_2 + 0 x_3_2 + 0 x_4_2 + 0 x_5_2 + 1 x_6_2 + 0 x_7_2 - 0 y_2 = 0
b11: 0 x_0_2 + 0 x_1_2 + 0 x_2_2 + 0 x_3_2 + 1 x_4_2 + 1 x_5_2 + 0 x_6_2 + 1 x_7_2 - 15 y_2 = 0
b12: 0 x_0_3 + 0 x_1_3 + 1 x_2_3 + 1 x_3_3 + 0 x_4_3 + 0 x_5_3 + 0 x_6_3 + 0 x_7_3 - 0 y_3 = 0
b13: 0 x_0_3 + 1 x_1_3 + 0 x_2_3 + 0 x_3_3 + 0 x_4_3 + 0 x_5_3 + 0 x_6_3 + 0 x_7_3 - 7 y_3 = 0
b14: 1 x_0_3 + 0 x_1_3 + 0 x_2_3 + 0 x_3_3 + 0 x_4_3 + 0 x_5_3 + 1 x_6_3 + 0 x_7_3 - 8 y_3 = 0
b15: 0 x_0_3 + 0 x_1_3 + 0 x_2_3 + 0 x_3_3 + 1 x_4_3 + 1 x_5_3 + 0 x_6_3 + 1 x_7_3 - 5 y_3 = 0
b16: 0 x_0_4 + 0 x_1_4 + 1 x_2_4 + 1 x_3_4 + 0 x_4_4 + 0 x_5_4 + 0 x_6_4 + 0 x_7_4 - 5 y_4 = 0
b17: 0 x_0_4 + 1 x_1_4 + 0 x_2_4 + 0 x_3_4 + 0 x_4_4 + 0 x_5_4 + 0 x_6_4 + 0 x_7_4 - 5 y_4 = 0
b18: 1 x_0_4 + 0 x_1_4 + 0 x_2_4 + 0 x_3_4 + 0 x_4_4 + 0 x_5_4 + 1 x_6_4 + 0 x_7_4 - 0 y_4 = 0
b19: 0 x_0_4 + 0 x_1_4 + 0 x_2_4 + 0 x_3_4 + 1 x_4_4 + 1 x_5_4 + 0 x_6_4 + 1 x_7_4 - 2 y_4 = 0
c0: y_0 <= 1
c1: y_1 <= 1
c2: y_2 <= 1
c3: y_3 <= 1
c4: y_4 <= 1





General

 x_0_0 x_0_1 x_0_2 x_0_3 x_0_4 x_1_0 x_1_1 x_1_2 x_1_3 x_1_4 x_2_0 x_2_1 x_2_2 x_2_3 x_2_4 x_3_0 x_3_1 x_3_2 x_3_3 x_3_4 x_4_0 x_4_1 x_4_2 x_4_3 x_4_4 x_5_0 x_5_1 x_5_2 x_5_3 x_5_4 x_6_0 x_6_1 x_6_2 x_6_3 x_6_4 x_7_0 x_7_1 x_7_2 x_7_3 x_7_4 y_0 y_1 y_2 y_3 y_4



End
